Traveling Salesman Problem/TSP_generados/Aleatorio1620391308_15.tsp
NAME: Aleatorio1620391308_15.tsp
COMMENT: Randomly generated scenario
TYPE: TSP
DIMENSION: 15
EDGE_WEIGHT_TYPE: ATT
NODE_COORD_SECTION
1 13.31 22.44
2 44.19 26.33
3 19.97 39.9
4 34.42 18.71
5 4.68 1.67
6 16.61 18.85
7 41.02 23.87
8 30.25 1.15
9 30.24 47.5
10 38.93 22.93
11 20.26 33.69
12 47.78 42.2
13 48.02 9.65
14 37.7 12.32
15 29.76 17.91
