Traveling Salesman Problem/TSP_generados/Aleatorio1620391308_15.opt.tour
NAME: Aleatorio1620391308_15.opt.tour
COMMENT: Optimal solution for Aleatorio1620391308_15 (175.4557537689233)
TYPE: TOUR
DIMENSION: 15
TOUR_SECTION
1 11 3 9 12 2 7 10 4 15 14 13 8 5 6
-1
EOF
